peakDumbCharging = 7400; 
Machine = anon_enum(16); 
machineSpeed = [3700,3700,3700,3700,3700,3700,3700,3700,3700,3700,3700,3700,3700,3700,3700,3700]; 
machineLoad = [3700,3700,3700,3700,3700,3700,3700,3700,3700,3700,3700,3700,3700,3700,3700,3700]; 
Car = anon_enum(4); 
demandCar = [14800,9920,29960,20960]; 
arrivalCar = [76,74,33,30]; 
departureCar = [82,79,67,64]; 
